59 76 49 134 40 122 131 36 74 30 94 50 24 142 125 140
140 125 142 24 50 94 30 74 36 131 122 40 134 49 76 59
55 78 2 113 25 73 24 50 94 129 42 39 1 81 20 13 127 17 6 57 45 121
121 45 57 6 17 127 13 20 81 1 39 42 129 94 50 24 73 25 113 2 78 55 99 69
71 53 36 123 130 44 47 68 42 139 91 89 32 102 92 63 125 90
140 90 125 63 92 102 32 89 91 139 42 68 47 44 130 123 36 53 71
